Maximize
  - 3.6772701360598 edge_0_1_0_0 - 3.0062674227621 edge_0_3_0_0
   + 0.0039301514465456 edge_0_4_0_0 - 2.9514341071 edge_0_7_0_0
   - 3.265258815945 edge_0_10_0_0 - 1.5351410646042 edge_0_12_0_0
   - 2.7449627345292 edge_0_15_0_0 - 0.3414721279287323 edge_1_3_0_0
   + 0.1671366179658118 edge_1_4_0_0 - 0.7792173735516912 edge_1_7_0_0
   - 0.5693998576390989 edge_1_9_0_0 - 0.3066030191063976 edge_1_10_0_0
   - 0.506567038154406 edge_1_12_0_0 - 0.5110801323995504 edge_1_14_0_0
   - 1.008567022729531 edge_1_17_0_0 - 0.8073699047733051 edge_2_1_0_0
   - 0.5681294201782567 edge_2_9_0_0 + 0.537735091090764 edge_3_1_0_0
   + 3.448047027964462 edge_3_2_0_0 + 0.4374302032415524 edge_3_4_0_0
   + 0.402047667728646 edge_3_6_0_0 + 2.343335996796424 edge_3_7_0_0
   + 0.00719993760756249 edge_3_8_0_0 + 1.229599157636772 edge_3_9_0_0
   + 0.8555198514273505 edge_3_10_0_0 + 0.3330627429723845 edge_3_12_0_0
   + 0.8237040610383263 edge_3_14_0_0 + 0.916710172910969 edge_3_15_0_0
   + 1.028219348939302 edge_3_17_0_0 + 0.4519104206578126 edge_3_18_0_0
   + 1.800412722972406 edge_3_19_0_0 + 1.505899202752779 edge_4_1_0_0
   + 0.2159545723971442 edge_4_2_0_0 + 1.643095304537992 edge_4_3_0_0
   + 1.388616129683332 edge_4_5_0_0 + 2.371553813072324 edge_4_7_0_0
   + 1.4066345381514 edge_4_8_0_0 + 1.315698849200075 edge_4_9_0_0
   + 1.312588169797637 edge_4_10_0_0 + 0.3928787731548349 edge_4_12_0_0
   + 0.8775254194902459 edge_4_13_0_0 + 1.556529052053445 edge_4_14_0_0
   + 0.4533690566716402 edge_4_15_0_0 + 0.4813555106762867 edge_4_17_0_0
   + 0.2181514005506475 edge_4_18_0_0 + 4.462414809465408 edge_4_19_0_0
   + 0.7342922396033558 edge_5_7_0_0 + 0.0199306067199659 edge_5_8_0_0
   - 0.1391990752413646 edge_5_9_0_0 - 0.423213525897852 edge_5_10_0_0
   + 0.0615498180343064 edge_6_9_0_0 - 0.0643207566845462 edge_6_10_0_0
   + 0.145288845122747 edge_7_1_0_0 + 0.7570178734855461 edge_7_2_0_0
   + 0.3071534971095152 edge_7_3_0_0 + 0.1050414881939315 edge_7_4_0_0
   + 3.003937258085924 edge_7_5_0_0 + 3.058385360205302 edge_7_6_0_0
   + 0.6523173223625349 edge_7_8_0_0 + 0.7145935251928401 edge_7_9_0_0
   + 0.6931666858803222 edge_7_10_0_0 + 0.6103302258413719 edge_7_12_0_0
   + 0.6147350863964569 edge_7_13_0_0 + 1.14400182513476 edge_7_14_0_0
   + 1.28410441001198 edge_7_15_0_0 + 1.329490906128223 edge_7_17_0_0
   + 1.047512550078948 edge_7_18_0_0 + 1.108829197179903 edge_7_19_0_0
   - 0.6262080900011417 edge_8_1_0_0 - 0.965621790325893 edge_8_3_0_0
   - 0.1502744194632348 edge_8_5_0_0 - 0.3221052804656412 edge_8_7_0_0
   + 0.2109464923812172 edge_8_9_0_0 - 1.41070914908227 edge_9_1_0_0
   - 0.5782471874806593 edge_9_5_0_0 - 0.8176312892578982 edge_9_7_0_0
   - 0.1223827372197456 edge_9_8_0_0 + 0.1138340732595148 edge_9_10_0_0
   - 0.2558302431666429 edge_9_12_0_0 + 0.228946584417705 edge_9_14_0_0
   - 0.1208630409621384 edge_9_17_0_0 - 0.471544547781187 edge_10_1_0_0
   + 0.1934945347531679 edge_10_3_0_0 - 0.4587003732470775 edge_10_4_0_0
   - 0.28010919826021 edge_10_5_0_0 + 0.2210477680385232 edge_10_7_0_0
   + 0.3533746019725185 edge_10_9_0_0 + 1.803072485394966 edge_10_12_0_0
   + 0.2639072450846658 edge_10_13_0_0 + 1.304736421442082 edge_10_14_0_0
   + 1.882997500527067 edge_10_15_0_0 + 0.4556576825503862 edge_10_17_0_0
   + 1.128377805335595 edge_10_18_0_0 + 2.040432881639267 edge_10_19_0_0
   - 0.6002583746413545 edge_12_1_0_0 - 0.0450964021076531 edge_12_3_0_0
   - 0.2684813840043784 edge_12_4_0_0 - 0.4995985414117797 edge_12_5_0_0
   + 0.5926488447578393 edge_12_6_0_0 + 0.2392007374991993 edge_12_7_0_0
   - 0.1753236753528623 edge_12_8_0_0 + 0.2797080187544775 edge_12_9_0_0
   + 0.8407673056250898 edge_12_10_0_0 + 0.4866709903973805 edge_12_13_0_0
   + 1.583336367923696 edge_12_14_0_0 + 1.617484501791001 edge_12_15_0_0
   + 2.016320896869508 edge_12_17_0_0 + 2.131719095858422 edge_12_18_0_0
   + 1.299736729421881 edge_12_19_0_0 - 0.4541966017066406 edge_13_1_0_0
   - 1.160606228031368 edge_13_3_0_0 + 0.1568048482398228 edge_13_4_0_0
   + 1.064439847508657 edge_13_5_0_0 + 0.1941691977933003 edge_13_7_0_0
   + 0.3099363253351416 edge_13_8_0_0 - 0.0111440895737371 edge_13_9_0_0
   + 1.390696877216674 edge_13_10_0_0 + 2.227992805677988 edge_13_12_0_0
   + 2.519532385591766 edge_13_14_0_0 + 1.074719823052427 edge_13_15_0_0
   + 1.445948552233874 edge_13_17_0_0 + 0.5290027829555473 edge_13_18_0_0
   + 1.271544164471444 edge_13_19_0_0 - 0.8361008550316099 edge_14_12_0_0
   - 0.8038565136045989 edge_14_13_0_0 + 0.0998657313621658 edge_14_15_0_0
   - 1.393389431900567 edge_15_1_0_0 - 1.487052616157799 edge_15_3_0_0
   - 0.9009291928289467 edge_15_4_0_0 - 1.100284667831461 edge_15_5_0_0
   + 0.0747470728291305 edge_15_6_0_0 - 0.672893853848191 edge_15_7_0_0
   - 0.3065858932026432 edge_15_8_0_0 - 0.7467215022826932 edge_15_9_0_0
   - 0.3079181531111306 edge_15_10_0_0 + 0.719836065744852 edge_15_12_0_0
   - 0.1804320624767005 edge_15_13_0_0 + 1.00566815290548 edge_15_14_0_0
   + 2.337887825528752 edge_15_17_0_0 + 2.707493807199119 edge_15_18_0_0
   + 2.127757047998205 edge_15_19_0_0 - 0.5871792465279635 edge_17_14_0_0
   - 0.2875007163010376 edge_17_15_0_0 + 0.2086794593393824 edge_17_18_0_0
   - 2.116065517783573 edge_18_1_0_0 - 1.204798616265569 edge_18_3_0_0
   - 1.530803782331779 edge_18_4_0_0 - 0.9310352852499167 edge_18_7_0_0
   - 0.7621486758573464 edge_18_10_0_0 - 0.1189132535906686 edge_18_12_0_0
   - 1.066451083600883 edge_18_13_0_0 - 0.3614587012617196 edge_18_14_0_0
   + 0.4573506007415524 edge_18_15_0_0 + 0.9471631448942015 edge_18_17_0_0
   + 1.055736736839578 edge_18_19_0_0 - 0.9971964772097546 edge_19_17_0_0
   - 0.8568514932131156 edge_19_18_0_0
Subject To
 one_parent_1: edge_0_1_0_0 + edge_2_1_0_0 + edge_3_1_0_0 + edge_4_1_0_0
   + edge_7_1_0_0 + edge_8_1_0_0 + edge_9_1_0_0 + edge_10_1_0_0
   + edge_12_1_0_0 + edge_13_1_0_0 + edge_15_1_0_0 + edge_18_1_0_0 = 1
 consume_one_flow_unit_1: flow_0_1_0_0 - flow_1_3_0_0 - flow_1_4_0_0
   - flow_1_7_0_0 - flow_1_9_0_0 - flow_1_10_0_0 - flow_1_12_0_0
   - flow_1_14_0_0 - flow_1_17_0_0 + flow_2_1_0_0 + flow_3_1_0_0
   + flow_4_1_0_0 + flow_7_1_0_0 + flow_8_1_0_0 + flow_9_1_0_0
   + flow_10_1_0_0 + flow_12_1_0_0 + flow_13_1_0_0 + flow_15_1_0_0
   + flow_18_1_0_0 = 1
 one_parent_2: edge_3_2_0_0 + edge_4_2_0_0 + edge_7_2_0_0 = 1
 consume_one_flow_unit_2: - flow_2_1_0_0 - flow_2_9_0_0 + flow_3_2_0_0
   + flow_4_2_0_0 + flow_7_2_0_0 = 1
 one_parent_3: edge_0_3_0_0 + edge_1_3_0_0 + edge_4_3_0_0 + edge_7_3_0_0
   + edge_8_3_0_0 + edge_10_3_0_0 + edge_12_3_0_0 + edge_13_3_0_0
   + edge_15_3_0_0 + edge_18_3_0_0 = 1
 consume_one_flow_unit_3: flow_0_3_0_0 + flow_1_3_0_0 - flow_3_1_0_0
   - flow_3_2_0_0 - flow_3_4_0_0 - flow_3_6_0_0 - flow_3_7_0_0
   - flow_3_8_0_0 - flow_3_9_0_0 - flow_3_10_0_0 - flow_3_12_0_0
   - flow_3_14_0_0 - flow_3_15_0_0 - flow_3_17_0_0 - flow_3_18_0_0
   - flow_3_19_0_0 + flow_4_3_0_0 + flow_7_3_0_0 + flow_8_3_0_0
   + flow_10_3_0_0 + flow_12_3_0_0 + flow_13_3_0_0 + flow_15_3_0_0
   + flow_18_3_0_0 = 1
 one_parent_4: edge_0_4_0_0 + edge_1_4_0_0 + edge_3_4_0_0 + edge_7_4_0_0
   + edge_10_4_0_0 + edge_12_4_0_0 + edge_13_4_0_0 + edge_15_4_0_0
   + edge_18_4_0_0 = 1
 consume_one_flow_unit_4: flow_0_4_0_0 + flow_1_4_0_0 + flow_3_4_0_0
   - flow_4_1_0_0 - flow_4_2_0_0 - flow_4_3_0_0 - flow_4_5_0_0
   - flow_4_7_0_0 - flow_4_8_0_0 - flow_4_9_0_0 - flow_4_10_0_0
   - flow_4_12_0_0 - flow_4_13_0_0 - flow_4_14_0_0 - flow_4_15_0_0
   - flow_4_17_0_0 - flow_4_18_0_0 - flow_4_19_0_0 + flow_7_4_0_0
   + flow_10_4_0_0 + flow_12_4_0_0 + flow_13_4_0_0 + flow_15_4_0_0
   + flow_18_4_0_0 = 1
 one_parent_5: edge_4_5_0_0 + edge_7_5_0_0 + edge_8_5_0_0 + edge_9_5_0_0
   + edge_10_5_0_0 + edge_12_5_0_0 + edge_13_5_0_0 + edge_15_5_0_0 = 1
 consume_one_flow_unit_5: flow_4_5_0_0 - flow_5_7_0_0 - flow_5_8_0_0
   - flow_5_9_0_0 - flow_5_10_0_0 + flow_7_5_0_0 + flow_8_5_0_0
   + flow_9_5_0_0 + flow_10_5_0_0 + flow_12_5_0_0 + flow_13_5_0_0
   + flow_15_5_0_0 = 1
 one_parent_6: edge_3_6_0_0 + edge_7_6_0_0 + edge_12_6_0_0 + edge_15_6_0_0
   = 1
 consume_one_flow_unit_6: flow_3_6_0_0 - flow_6_9_0_0 - flow_6_10_0_0
   + flow_7_6_0_0 + flow_12_6_0_0 + flow_15_6_0_0 = 1
 one_parent_7: edge_0_7_0_0 + edge_1_7_0_0 + edge_3_7_0_0 + edge_4_7_0_0
   + edge_5_7_0_0 + edge_8_7_0_0 + edge_9_7_0_0 + edge_10_7_0_0
   + edge_12_7_0_0 + edge_13_7_0_0 + edge_15_7_0_0 + edge_18_7_0_0 = 1
 consume_one_flow_unit_7: flow_0_7_0_0 + flow_1_7_0_0 + flow_3_7_0_0
   + flow_4_7_0_0 + flow_5_7_0_0 - flow_7_1_0_0 - flow_7_2_0_0
   - flow_7_3_0_0 - flow_7_4_0_0 - flow_7_5_0_0 - flow_7_6_0_0
   - flow_7_8_0_0 - flow_7_9_0_0 - flow_7_10_0_0 - flow_7_12_0_0
   - flow_7_13_0_0 - flow_7_14_0_0 - flow_7_15_0_0 - flow_7_17_0_0
   - flow_7_18_0_0 - flow_7_19_0_0 + flow_8_7_0_0 + flow_9_7_0_0
   + flow_10_7_0_0 + flow_12_7_0_0 + flow_13_7_0_0 + flow_15_7_0_0
   + flow_18_7_0_0 = 1
 one_parent_8: edge_3_8_0_0 + edge_4_8_0_0 + edge_5_8_0_0 + edge_7_8_0_0
   + edge_9_8_0_0 + edge_12_8_0_0 + edge_13_8_0_0 + edge_15_8_0_0 = 1
 consume_one_flow_unit_8: flow_3_8_0_0 + flow_4_8_0_0 + flow_5_8_0_0
   + flow_7_8_0_0 - flow_8_1_0_0 - flow_8_3_0_0 - flow_8_5_0_0
   - flow_8_7_0_0 - flow_8_9_0_0 + flow_9_8_0_0 + flow_12_8_0_0
   + flow_13_8_0_0 + flow_15_8_0_0 = 1
 one_parent_9: edge_1_9_0_0 + edge_2_9_0_0 + edge_3_9_0_0 + edge_4_9_0_0
   + edge_5_9_0_0 + edge_6_9_0_0 + edge_7_9_0_0 + edge_8_9_0_0
   + edge_10_9_0_0 + edge_12_9_0_0 + edge_13_9_0_0 + edge_15_9_0_0 = 1
 consume_one_flow_unit_9: flow_1_9_0_0 + flow_2_9_0_0 + flow_3_9_0_0
   + flow_4_9_0_0 + flow_5_9_0_0 + flow_6_9_0_0 + flow_7_9_0_0
   + flow_8_9_0_0 - flow_9_1_0_0 - flow_9_5_0_0 - flow_9_7_0_0
   - flow_9_8_0_0 - flow_9_10_0_0 - flow_9_12_0_0 - flow_9_14_0_0
   - flow_9_17_0_0 + flow_10_9_0_0 + flow_12_9_0_0 + flow_13_9_0_0
   + flow_15_9_0_0 = 1
 one_parent_10: edge_0_10_0_0 + edge_1_10_0_0 + edge_3_10_0_0
   + edge_4_10_0_0 + edge_5_10_0_0 + edge_6_10_0_0 + edge_7_10_0_0
   + edge_9_10_0_0 + edge_12_10_0_0 + edge_13_10_0_0 + edge_15_10_0_0
   + edge_18_10_0_0 = 1
 consume_one_flow_unit_10: flow_0_10_0_0 + flow_1_10_0_0 + flow_3_10_0_0
   + flow_4_10_0_0 + flow_5_10_0_0 + flow_6_10_0_0 + flow_7_10_0_0
   + flow_9_10_0_0 - flow_10_1_0_0 - flow_10_3_0_0 - flow_10_4_0_0
   - flow_10_5_0_0 - flow_10_7_0_0 - flow_10_9_0_0 - flow_10_12_0_0
   - flow_10_13_0_0 - flow_10_14_0_0 - flow_10_15_0_0 - flow_10_17_0_0
   - flow_10_18_0_0 - flow_10_19_0_0 + flow_12_10_0_0 + flow_13_10_0_0
   + flow_15_10_0_0 + flow_18_10_0_0 = 1
 one_parent_11: = 1
 consume_one_flow_unit_11: = 1
 one_parent_12: edge_0_12_0_0 + edge_1_12_0_0 + edge_3_12_0_0
   + edge_4_12_0_0 + edge_7_12_0_0 + edge_9_12_0_0 + edge_10_12_0_0
   + edge_13_12_0_0 + edge_14_12_0_0 + edge_15_12_0_0 + edge_18_12_0_0 = 1
 consume_one_flow_unit_12: flow_0_12_0_0 + flow_1_12_0_0 + flow_3_12_0_0
   + flow_4_12_0_0 + flow_7_12_0_0 + flow_9_12_0_0 + flow_10_12_0_0
   - flow_12_1_0_0 - flow_12_3_0_0 - flow_12_4_0_0 - flow_12_5_0_0
   - flow_12_6_0_0 - flow_12_7_0_0 - flow_12_8_0_0 - flow_12_9_0_0
   - flow_12_10_0_0 - flow_12_13_0_0 - flow_12_14_0_0 - flow_12_15_0_0
   - flow_12_17_0_0 - flow_12_18_0_0 - flow_12_19_0_0 + flow_13_12_0_0
   + flow_14_12_0_0 + flow_15_12_0_0 + flow_18_12_0_0 = 1
 one_parent_13: edge_4_13_0_0 + edge_7_13_0_0 + edge_10_13_0_0
   + edge_12_13_0_0 + edge_14_13_0_0 + edge_15_13_0_0 + edge_18_13_0_0 = 1
 consume_one_flow_unit_13: flow_4_13_0_0 + flow_7_13_0_0 + flow_10_13_0_0
   + flow_12_13_0_0 - flow_13_1_0_0 - flow_13_3_0_0 - flow_13_4_0_0
   - flow_13_5_0_0 - flow_13_7_0_0 - flow_13_8_0_0 - flow_13_9_0_0
   - flow_13_10_0_0 - flow_13_12_0_0 - flow_13_14_0_0 - flow_13_15_0_0
   - flow_13_17_0_0 - flow_13_18_0_0 - flow_13_19_0_0 + flow_14_13_0_0
   + flow_15_13_0_0 + flow_18_13_0_0 = 1
 one_parent_14: edge_1_14_0_0 + edge_3_14_0_0 + edge_4_14_0_0
   + edge_7_14_0_0 + edge_9_14_0_0 + edge_10_14_0_0 + edge_12_14_0_0
   + edge_13_14_0_0 + edge_15_14_0_0 + edge_17_14_0_0 + edge_18_14_0_0 = 1
 consume_one_flow_unit_14: flow_1_14_0_0 + flow_3_14_0_0 + flow_4_14_0_0
   + flow_7_14_0_0 + flow_9_14_0_0 + flow_10_14_0_0 + flow_12_14_0_0
   + flow_13_14_0_0 - flow_14_12_0_0 - flow_14_13_0_0 - flow_14_15_0_0
   + flow_15_14_0_0 + flow_17_14_0_0 + flow_18_14_0_0 = 1
 one_parent_15: edge_0_15_0_0 + edge_3_15_0_0 + edge_4_15_0_0
   + edge_7_15_0_0 + edge_10_15_0_0 + edge_12_15_0_0 + edge_13_15_0_0
   + edge_14_15_0_0 + edge_17_15_0_0 + edge_18_15_0_0 = 1
 consume_one_flow_unit_15: flow_0_15_0_0 + flow_3_15_0_0 + flow_4_15_0_0
   + flow_7_15_0_0 + flow_10_15_0_0 + flow_12_15_0_0 + flow_13_15_0_0
   + flow_14_15_0_0 - flow_15_1_0_0 - flow_15_3_0_0 - flow_15_4_0_0
   - flow_15_5_0_0 - flow_15_6_0_0 - flow_15_7_0_0 - flow_15_8_0_0
   - flow_15_9_0_0 - flow_15_10_0_0 - flow_15_12_0_0 - flow_15_13_0_0
   - flow_15_14_0_0 - flow_15_17_0_0 - flow_15_18_0_0 - flow_15_19_0_0
   + flow_17_15_0_0 + flow_18_15_0_0 = 1
 one_parent_16: = 1
 consume_one_flow_unit_16: = 1
 one_parent_17: edge_1_17_0_0 + edge_3_17_0_0 + edge_4_17_0_0
   + edge_7_17_0_0 + edge_9_17_0_0 + edge_10_17_0_0 + edge_12_17_0_0
   + edge_13_17_0_0 + edge_15_17_0_0 + edge_18_17_0_0 + edge_19_17_0_0 = 1
 consume_one_flow_unit_17: flow_1_17_0_0 + flow_3_17_0_0 + flow_4_17_0_0
   + flow_7_17_0_0 + flow_9_17_0_0 + flow_10_17_0_0 + flow_12_17_0_0
   + flow_13_17_0_0 + flow_15_17_0_0 - flow_17_14_0_0 - flow_17_15_0_0
   - flow_17_18_0_0 + flow_18_17_0_0 + flow_19_17_0_0 = 1
 one_parent_18: edge_3_18_0_0 + edge_4_18_0_0 + edge_7_18_0_0
   + edge_10_18_0_0 + edge_12_18_0_0 + edge_13_18_0_0 + edge_15_18_0_0
   + edge_17_18_0_0 + edge_19_18_0_0 = 1
 consume_one_flow_unit_18: flow_3_18_0_0 + flow_4_18_0_0 + flow_7_18_0_0
   + flow_10_18_0_0 + flow_12_18_0_0 + flow_13_18_0_0 + flow_15_18_0_0
   + flow_17_18_0_0 - flow_18_1_0_0 - flow_18_3_0_0 - flow_18_4_0_0
   - flow_18_7_0_0 - flow_18_10_0_0 - flow_18_12_0_0 - flow_18_13_0_0
   - flow_18_14_0_0 - flow_18_15_0_0 - flow_18_17_0_0 - flow_18_19_0_0
   + flow_19_18_0_0 = 1
 one_parent_19: edge_3_19_0_0 + edge_4_19_0_0 + edge_7_19_0_0
   + edge_10_19_0_0 + edge_12_19_0_0 + edge_13_19_0_0 + edge_15_19_0_0
   + edge_18_19_0_0 = 1
 consume_one_flow_unit_19: flow_3_19_0_0 + flow_4_19_0_0 + flow_7_19_0_0
   + flow_10_19_0_0 + flow_12_19_0_0 + flow_13_19_0_0 + flow_15_19_0_0
   + flow_18_19_0_0 - flow_19_17_0_0 - flow_19_18_0_0 = 1
 root_flow: flow_0_1_0_0 + flow_0_3_0_0 + flow_0_4_0_0 + flow_0_7_0_0
   + flow_0_10_0_0 + flow_0_12_0_0 + flow_0_15_0_0 = 19
 inactive_no_flow_0_1_0_0: flow_0_1_0_0 - 1000 edge_0_1_0_0 <= 0
 inactive_no_flow_0_3_0_0: flow_0_3_0_0 - 1000 edge_0_3_0_0 <= 0
 inactive_no_flow_0_4_0_0: flow_0_4_0_0 - 1000 edge_0_4_0_0 <= 0
 inactive_no_flow_0_7_0_0: flow_0_7_0_0 - 1000 edge_0_7_0_0 <= 0
 inactive_no_flow_0_10_0_0: flow_0_10_0_0 - 1000 edge_0_10_0_0 <= 0
 inactive_no_flow_0_12_0_0: flow_0_12_0_0 - 1000 edge_0_12_0_0 <= 0
 inactive_no_flow_0_15_0_0: flow_0_15_0_0 - 1000 edge_0_15_0_0 <= 0
 inactive_no_flow_1_3_0_0: flow_1_3_0_0 - 1000 edge_1_3_0_0 <= 0
 inactive_no_flow_1_4_0_0: flow_1_4_0_0 - 1000 edge_1_4_0_0 <= 0
 inactive_no_flow_1_7_0_0: flow_1_7_0_0 - 1000 edge_1_7_0_0 <= 0
 inactive_no_flow_1_9_0_0: flow_1_9_0_0 - 1000 edge_1_9_0_0 <= 0
 inactive_no_flow_1_10_0_0: flow_1_10_0_0 - 1000 edge_1_10_0_0 <= 0
 inactive_no_flow_1_12_0_0: flow_1_12_0_0 - 1000 edge_1_12_0_0 <= 0
 inactive_no_flow_1_14_0_0: flow_1_14_0_0 - 1000 edge_1_14_0_0 <= 0
 inactive_no_flow_1_17_0_0: flow_1_17_0_0 - 1000 edge_1_17_0_0 <= 0
 inactive_no_flow_2_1_0_0: flow_2_1_0_0 - 1000 edge_2_1_0_0 <= 0
 inactive_no_flow_2_9_0_0: flow_2_9_0_0 - 1000 edge_2_9_0_0 <= 0
 inactive_no_flow_3_1_0_0: flow_3_1_0_0 - 1000 edge_3_1_0_0 <= 0
 inactive_no_flow_3_2_0_0: flow_3_2_0_0 - 1000 edge_3_2_0_0 <= 0
 inactive_no_flow_3_4_0_0: flow_3_4_0_0 - 1000 edge_3_4_0_0 <= 0
 inactive_no_flow_3_6_0_0: flow_3_6_0_0 - 1000 edge_3_6_0_0 <= 0
 inactive_no_flow_3_7_0_0: flow_3_7_0_0 - 1000 edge_3_7_0_0 <= 0
 inactive_no_flow_3_8_0_0: flow_3_8_0_0 - 1000 edge_3_8_0_0 <= 0
 inactive_no_flow_3_9_0_0: flow_3_9_0_0 - 1000 edge_3_9_0_0 <= 0
 inactive_no_flow_3_10_0_0: flow_3_10_0_0 - 1000 edge_3_10_0_0 <= 0
 inactive_no_flow_3_12_0_0: flow_3_12_0_0 - 1000 edge_3_12_0_0 <= 0
 inactive_no_flow_3_14_0_0: flow_3_14_0_0 - 1000 edge_3_14_0_0 <= 0
 inactive_no_flow_3_15_0_0: flow_3_15_0_0 - 1000 edge_3_15_0_0 <= 0
 inactive_no_flow_3_17_0_0: flow_3_17_0_0 - 1000 edge_3_17_0_0 <= 0
 inactive_no_flow_3_18_0_0: flow_3_18_0_0 - 1000 edge_3_18_0_0 <= 0
 inactive_no_flow_3_19_0_0: flow_3_19_0_0 - 1000 edge_3_19_0_0 <= 0
 inactive_no_flow_4_1_0_0: flow_4_1_0_0 - 1000 edge_4_1_0_0 <= 0
 inactive_no_flow_4_2_0_0: flow_4_2_0_0 - 1000 edge_4_2_0_0 <= 0
 inactive_no_flow_4_3_0_0: flow_4_3_0_0 - 1000 edge_4_3_0_0 <= 0
 inactive_no_flow_4_5_0_0: flow_4_5_0_0 - 1000 edge_4_5_0_0 <= 0
 inactive_no_flow_4_7_0_0: flow_4_7_0_0 - 1000 edge_4_7_0_0 <= 0
 inactive_no_flow_4_8_0_0: flow_4_8_0_0 - 1000 edge_4_8_0_0 <= 0
 inactive_no_flow_4_9_0_0: flow_4_9_0_0 - 1000 edge_4_9_0_0 <= 0
 inactive_no_flow_4_10_0_0: flow_4_10_0_0 - 1000 edge_4_10_0_0 <= 0
 inactive_no_flow_4_12_0_0: flow_4_12_0_0 - 1000 edge_4_12_0_0 <= 0
 inactive_no_flow_4_13_0_0: flow_4_13_0_0 - 1000 edge_4_13_0_0 <= 0
 inactive_no_flow_4_14_0_0: flow_4_14_0_0 - 1000 edge_4_14_0_0 <= 0
 inactive_no_flow_4_15_0_0: flow_4_15_0_0 - 1000 edge_4_15_0_0 <= 0
 inactive_no_flow_4_17_0_0: flow_4_17_0_0 - 1000 edge_4_17_0_0 <= 0
 inactive_no_flow_4_18_0_0: flow_4_18_0_0 - 1000 edge_4_18_0_0 <= 0
 inactive_no_flow_4_19_0_0: flow_4_19_0_0 - 1000 edge_4_19_0_0 <= 0
 inactive_no_flow_5_7_0_0: flow_5_7_0_0 - 1000 edge_5_7_0_0 <= 0
 inactive_no_flow_5_8_0_0: flow_5_8_0_0 - 1000 edge_5_8_0_0 <= 0
 inactive_no_flow_5_9_0_0: flow_5_9_0_0 - 1000 edge_5_9_0_0 <= 0
 inactive_no_flow_5_10_0_0: flow_5_10_0_0 - 1000 edge_5_10_0_0 <= 0
 inactive_no_flow_6_9_0_0: flow_6_9_0_0 - 1000 edge_6_9_0_0 <= 0
 inactive_no_flow_6_10_0_0: flow_6_10_0_0 - 1000 edge_6_10_0_0 <= 0
 inactive_no_flow_7_1_0_0: flow_7_1_0_0 - 1000 edge_7_1_0_0 <= 0
 inactive_no_flow_7_2_0_0: flow_7_2_0_0 - 1000 edge_7_2_0_0 <= 0
 inactive_no_flow_7_3_0_0: flow_7_3_0_0 - 1000 edge_7_3_0_0 <= 0
 inactive_no_flow_7_4_0_0: flow_7_4_0_0 - 1000 edge_7_4_0_0 <= 0
 inactive_no_flow_7_5_0_0: flow_7_5_0_0 - 1000 edge_7_5_0_0 <= 0
 inactive_no_flow_7_6_0_0: flow_7_6_0_0 - 1000 edge_7_6_0_0 <= 0
 inactive_no_flow_7_8_0_0: flow_7_8_0_0 - 1000 edge_7_8_0_0 <= 0
 inactive_no_flow_7_9_0_0: flow_7_9_0_0 - 1000 edge_7_9_0_0 <= 0
 inactive_no_flow_7_10_0_0: flow_7_10_0_0 - 1000 edge_7_10_0_0 <= 0
 inactive_no_flow_7_12_0_0: flow_7_12_0_0 - 1000 edge_7_12_0_0 <= 0
 inactive_no_flow_7_13_0_0: flow_7_13_0_0 - 1000 edge_7_13_0_0 <= 0
 inactive_no_flow_7_14_0_0: flow_7_14_0_0 - 1000 edge_7_14_0_0 <= 0
 inactive_no_flow_7_15_0_0: flow_7_15_0_0 - 1000 edge_7_15_0_0 <= 0
 inactive_no_flow_7_17_0_0: flow_7_17_0_0 - 1000 edge_7_17_0_0 <= 0
 inactive_no_flow_7_18_0_0: flow_7_18_0_0 - 1000 edge_7_18_0_0 <= 0
 inactive_no_flow_7_19_0_0: flow_7_19_0_0 - 1000 edge_7_19_0_0 <= 0
 inactive_no_flow_8_1_0_0: flow_8_1_0_0 - 1000 edge_8_1_0_0 <= 0
 inactive_no_flow_8_3_0_0: flow_8_3_0_0 - 1000 edge_8_3_0_0 <= 0
 inactive_no_flow_8_5_0_0: flow_8_5_0_0 - 1000 edge_8_5_0_0 <= 0
 inactive_no_flow_8_7_0_0: flow_8_7_0_0 - 1000 edge_8_7_0_0 <= 0
 inactive_no_flow_8_9_0_0: flow_8_9_0_0 - 1000 edge_8_9_0_0 <= 0
 inactive_no_flow_9_1_0_0: flow_9_1_0_0 - 1000 edge_9_1_0_0 <= 0
 inactive_no_flow_9_5_0_0: flow_9_5_0_0 - 1000 edge_9_5_0_0 <= 0
 inactive_no_flow_9_7_0_0: flow_9_7_0_0 - 1000 edge_9_7_0_0 <= 0
 inactive_no_flow_9_8_0_0: flow_9_8_0_0 - 1000 edge_9_8_0_0 <= 0
 inactive_no_flow_9_10_0_0: flow_9_10_0_0 - 1000 edge_9_10_0_0 <= 0
 inactive_no_flow_9_12_0_0: flow_9_12_0_0 - 1000 edge_9_12_0_0 <= 0
 inactive_no_flow_9_14_0_0: flow_9_14_0_0 - 1000 edge_9_14_0_0 <= 0
 inactive_no_flow_9_17_0_0: flow_9_17_0_0 - 1000 edge_9_17_0_0 <= 0
 inactive_no_flow_10_1_0_0: flow_10_1_0_0 - 1000 edge_10_1_0_0 <= 0
 inactive_no_flow_10_3_0_0: flow_10_3_0_0 - 1000 edge_10_3_0_0 <= 0
 inactive_no_flow_10_4_0_0: flow_10_4_0_0 - 1000 edge_10_4_0_0 <= 0
 inactive_no_flow_10_5_0_0: flow_10_5_0_0 - 1000 edge_10_5_0_0 <= 0
 inactive_no_flow_10_7_0_0: flow_10_7_0_0 - 1000 edge_10_7_0_0 <= 0
 inactive_no_flow_10_9_0_0: flow_10_9_0_0 - 1000 edge_10_9_0_0 <= 0
 inactive_no_flow_10_12_0_0: flow_10_12_0_0 - 1000 edge_10_12_0_0 <= 0
 inactive_no_flow_10_13_0_0: flow_10_13_0_0 - 1000 edge_10_13_0_0 <= 0
 inactive_no_flow_10_14_0_0: flow_10_14_0_0 - 1000 edge_10_14_0_0 <= 0
 inactive_no_flow_10_15_0_0: flow_10_15_0_0 - 1000 edge_10_15_0_0 <= 0
 inactive_no_flow_10_17_0_0: flow_10_17_0_0 - 1000 edge_10_17_0_0 <= 0
 inactive_no_flow_10_18_0_0: flow_10_18_0_0 - 1000 edge_10_18_0_0 <= 0
 inactive_no_flow_10_19_0_0: flow_10_19_0_0 - 1000 edge_10_19_0_0 <= 0
 inactive_no_flow_12_1_0_0: flow_12_1_0_0 - 1000 edge_12_1_0_0 <= 0
 inactive_no_flow_12_3_0_0: flow_12_3_0_0 - 1000 edge_12_3_0_0 <= 0
 inactive_no_flow_12_4_0_0: flow_12_4_0_0 - 1000 edge_12_4_0_0 <= 0
 inactive_no_flow_12_5_0_0: flow_12_5_0_0 - 1000 edge_12_5_0_0 <= 0
 inactive_no_flow_12_6_0_0: flow_12_6_0_0 - 1000 edge_12_6_0_0 <= 0
 inactive_no_flow_12_7_0_0: flow_12_7_0_0 - 1000 edge_12_7_0_0 <= 0
 inactive_no_flow_12_8_0_0: flow_12_8_0_0 - 1000 edge_12_8_0_0 <= 0
 inactive_no_flow_12_9_0_0: flow_12_9_0_0 - 1000 edge_12_9_0_0 <= 0
 inactive_no_flow_12_10_0_0: flow_12_10_0_0 - 1000 edge_12_10_0_0 <= 0
 inactive_no_flow_12_13_0_0: flow_12_13_0_0 - 1000 edge_12_13_0_0 <= 0
 inactive_no_flow_12_14_0_0: flow_12_14_0_0 - 1000 edge_12_14_0_0 <= 0
 inactive_no_flow_12_15_0_0: flow_12_15_0_0 - 1000 edge_12_15_0_0 <= 0
 inactive_no_flow_12_17_0_0: flow_12_17_0_0 - 1000 edge_12_17_0_0 <= 0
 inactive_no_flow_12_18_0_0: flow_12_18_0_0 - 1000 edge_12_18_0_0 <= 0
 inactive_no_flow_12_19_0_0: flow_12_19_0_0 - 1000 edge_12_19_0_0 <= 0
 inactive_no_flow_13_1_0_0: flow_13_1_0_0 - 1000 edge_13_1_0_0 <= 0
 inactive_no_flow_13_3_0_0: flow_13_3_0_0 - 1000 edge_13_3_0_0 <= 0
 inactive_no_flow_13_4_0_0: flow_13_4_0_0 - 1000 edge_13_4_0_0 <= 0
 inactive_no_flow_13_5_0_0: flow_13_5_0_0 - 1000 edge_13_5_0_0 <= 0
 inactive_no_flow_13_7_0_0: flow_13_7_0_0 - 1000 edge_13_7_0_0 <= 0
 inactive_no_flow_13_8_0_0: flow_13_8_0_0 - 1000 edge_13_8_0_0 <= 0
 inactive_no_flow_13_9_0_0: flow_13_9_0_0 - 1000 edge_13_9_0_0 <= 0
 inactive_no_flow_13_10_0_0: flow_13_10_0_0 - 1000 edge_13_10_0_0 <= 0
 inactive_no_flow_13_12_0_0: flow_13_12_0_0 - 1000 edge_13_12_0_0 <= 0
 inactive_no_flow_13_14_0_0: flow_13_14_0_0 - 1000 edge_13_14_0_0 <= 0
 inactive_no_flow_13_15_0_0: flow_13_15_0_0 - 1000 edge_13_15_0_0 <= 0
 inactive_no_flow_13_17_0_0: flow_13_17_0_0 - 1000 edge_13_17_0_0 <= 0
 inactive_no_flow_13_18_0_0: flow_13_18_0_0 - 1000 edge_13_18_0_0 <= 0
 inactive_no_flow_13_19_0_0: flow_13_19_0_0 - 1000 edge_13_19_0_0 <= 0
 inactive_no_flow_14_12_0_0: flow_14_12_0_0 - 1000 edge_14_12_0_0 <= 0
 inactive_no_flow_14_13_0_0: flow_14_13_0_0 - 1000 edge_14_13_0_0 <= 0
 inactive_no_flow_14_15_0_0: flow_14_15_0_0 - 1000 edge_14_15_0_0 <= 0
 inactive_no_flow_15_1_0_0: flow_15_1_0_0 - 1000 edge_15_1_0_0 <= 0
 inactive_no_flow_15_3_0_0: flow_15_3_0_0 - 1000 edge_15_3_0_0 <= 0
 inactive_no_flow_15_4_0_0: flow_15_4_0_0 - 1000 edge_15_4_0_0 <= 0
 inactive_no_flow_15_5_0_0: flow_15_5_0_0 - 1000 edge_15_5_0_0 <= 0
 inactive_no_flow_15_6_0_0: flow_15_6_0_0 - 1000 edge_15_6_0_0 <= 0
 inactive_no_flow_15_7_0_0: flow_15_7_0_0 - 1000 edge_15_7_0_0 <= 0
 inactive_no_flow_15_8_0_0: flow_15_8_0_0 - 1000 edge_15_8_0_0 <= 0
 inactive_no_flow_15_9_0_0: flow_15_9_0_0 - 1000 edge_15_9_0_0 <= 0
 inactive_no_flow_15_10_0_0: flow_15_10_0_0 - 1000 edge_15_10_0_0 <= 0
 inactive_no_flow_15_12_0_0: flow_15_12_0_0 - 1000 edge_15_12_0_0 <= 0
 inactive_no_flow_15_13_0_0: flow_15_13_0_0 - 1000 edge_15_13_0_0 <= 0
 inactive_no_flow_15_14_0_0: flow_15_14_0_0 - 1000 edge_15_14_0_0 <= 0
 inactive_no_flow_15_17_0_0: flow_15_17_0_0 - 1000 edge_15_17_0_0 <= 0
 inactive_no_flow_15_18_0_0: flow_15_18_0_0 - 1000 edge_15_18_0_0 <= 0
 inactive_no_flow_15_19_0_0: flow_15_19_0_0 - 1000 edge_15_19_0_0 <= 0
 inactive_no_flow_17_14_0_0: flow_17_14_0_0 - 1000 edge_17_14_0_0 <= 0
 inactive_no_flow_17_15_0_0: flow_17_15_0_0 - 1000 edge_17_15_0_0 <= 0
 inactive_no_flow_17_18_0_0: flow_17_18_0_0 - 1000 edge_17_18_0_0 <= 0
 inactive_no_flow_18_1_0_0: flow_18_1_0_0 - 1000 edge_18_1_0_0 <= 0
 inactive_no_flow_18_3_0_0: flow_18_3_0_0 - 1000 edge_18_3_0_0 <= 0
 inactive_no_flow_18_4_0_0: flow_18_4_0_0 - 1000 edge_18_4_0_0 <= 0
 inactive_no_flow_18_7_0_0: flow_18_7_0_0 - 1000 edge_18_7_0_0 <= 0
 inactive_no_flow_18_10_0_0: flow_18_10_0_0 - 1000 edge_18_10_0_0 <= 0
 inactive_no_flow_18_12_0_0: flow_18_12_0_0 - 1000 edge_18_12_0_0 <= 0
 inactive_no_flow_18_13_0_0: flow_18_13_0_0 - 1000 edge_18_13_0_0 <= 0
 inactive_no_flow_18_14_0_0: flow_18_14_0_0 - 1000 edge_18_14_0_0 <= 0
 inactive_no_flow_18_15_0_0: flow_18_15_0_0 - 1000 edge_18_15_0_0 <= 0
 inactive_no_flow_18_17_0_0: flow_18_17_0_0 - 1000 edge_18_17_0_0 <= 0
 inactive_no_flow_18_19_0_0: flow_18_19_0_0 - 1000 edge_18_19_0_0 <= 0
 inactive_no_flow_19_17_0_0: flow_19_17_0_0 - 1000 edge_19_17_0_0 <= 0
 inactive_no_flow_19_18_0_0: flow_19_18_0_0 - 1000 edge_19_18_0_0 <= 0
Bounds
Binaries
 edge_0_1_0_0 edge_0_3_0_0 edge_0_4_0_0 edge_0_7_0_0 edge_0_10_0_0
 edge_0_12_0_0 edge_0_15_0_0 edge_1_3_0_0 edge_1_4_0_0 edge_1_7_0_0
 edge_1_9_0_0 edge_1_10_0_0 edge_1_12_0_0 edge_1_14_0_0 edge_1_17_0_0
 edge_2_1_0_0 edge_2_9_0_0 edge_3_1_0_0 edge_3_2_0_0 edge_3_4_0_0
 edge_3_6_0_0 edge_3_7_0_0 edge_3_8_0_0 edge_3_9_0_0 edge_3_10_0_0
 edge_3_12_0_0 edge_3_14_0_0 edge_3_15_0_0 edge_3_17_0_0 edge_3_18_0_0
 edge_3_19_0_0 edge_4_1_0_0 edge_4_2_0_0 edge_4_3_0_0 edge_4_5_0_0
 edge_4_7_0_0 edge_4_8_0_0 edge_4_9_0_0 edge_4_10_0_0 edge_4_12_0_0
 edge_4_13_0_0 edge_4_14_0_0 edge_4_15_0_0 edge_4_17_0_0 edge_4_18_0_0
 edge_4_19_0_0 edge_5_7_0_0 edge_5_8_0_0 edge_5_9_0_0 edge_5_10_0_0
 edge_6_9_0_0 edge_6_10_0_0 edge_7_1_0_0 edge_7_2_0_0 edge_7_3_0_0
 edge_7_4_0_0 edge_7_5_0_0 edge_7_6_0_0 edge_7_8_0_0 edge_7_9_0_0
 edge_7_10_0_0 edge_7_12_0_0 edge_7_13_0_0 edge_7_14_0_0 edge_7_15_0_0
 edge_7_17_0_0 edge_7_18_0_0 edge_7_19_0_0 edge_8_1_0_0 edge_8_3_0_0
 edge_8_5_0_0 edge_8_7_0_0 edge_8_9_0_0 edge_9_1_0_0 edge_9_5_0_0
 edge_9_7_0_0 edge_9_8_0_0 edge_9_10_0_0 edge_9_12_0_0 edge_9_14_0_0
 edge_9_17_0_0 edge_10_1_0_0 edge_10_3_0_0 edge_10_4_0_0 edge_10_5_0_0
 edge_10_7_0_0 edge_10_9_0_0 edge_10_12_0_0 edge_10_13_0_0 edge_10_14_0_0
 edge_10_15_0_0 edge_10_17_0_0 edge_10_18_0_0 edge_10_19_0_0 edge_12_1_0_0
 edge_12_3_0_0 edge_12_4_0_0 edge_12_5_0_0 edge_12_6_0_0 edge_12_7_0_0
 edge_12_8_0_0 edge_12_9_0_0 edge_12_10_0_0 edge_12_13_0_0 edge_12_14_0_0
 edge_12_15_0_0 edge_12_17_0_0 edge_12_18_0_0 edge_12_19_0_0 edge_13_1_0_0
 edge_13_3_0_0 edge_13_4_0_0 edge_13_5_0_0 edge_13_7_0_0 edge_13_8_0_0
 edge_13_9_0_0 edge_13_10_0_0 edge_13_12_0_0 edge_13_14_0_0 edge_13_15_0_0
 edge_13_17_0_0 edge_13_18_0_0 edge_13_19_0_0 edge_14_12_0_0 edge_14_13_0_0
 edge_14_15_0_0 edge_15_1_0_0 edge_15_3_0_0 edge_15_4_0_0 edge_15_5_0_0
 edge_15_6_0_0 edge_15_7_0_0 edge_15_8_0_0 edge_15_9_0_0 edge_15_10_0_0
 edge_15_12_0_0 edge_15_13_0_0 edge_15_14_0_0 edge_15_17_0_0 edge_15_18_0_0
 edge_15_19_0_0 edge_17_14_0_0 edge_17_15_0_0 edge_17_18_0_0 edge_18_1_0_0
 edge_18_3_0_0 edge_18_4_0_0 edge_18_7_0_0 edge_18_10_0_0 edge_18_12_0_0
 edge_18_13_0_0 edge_18_14_0_0 edge_18_15_0_0 edge_18_17_0_0 edge_18_19_0_0
 edge_19_17_0_0 edge_19_18_0_0
End
